\ENCODING=ISO-8859-1
\Problem name: ilog.cplex

Minimize
 obj1: coutC2 + coutC1
Subject To
 CI1e0j0: x0_1_0 + x1_0_0 + x0_2_0 + x2_0_0 + x0_3_0 + x3_0_0  = 1
 CI1e1j0: x0_1_0 + x1_0_0 + x1_2_0 + x2_1_0 + x1_3_0 + x3_1_0  = 1
 CI1e2j0: x0_2_0 + x2_0_0 + x1_2_0 + x2_1_0 + x2_3_0 + x3_2_0  = 1
 CI1e3j0: x0_3_0 + x3_0_0 + x1_3_0 + x3_1_0 + x2_3_0 + x3_2_0  = 1
 CI1e0j1: x0_1_1 + x1_0_1 + x0_2_1 + x2_0_1 + x0_3_1 + x3_0_1  = 1
 CI1e1j1: x0_1_1 + x1_0_1 + x1_2_1 + x2_1_1 + x1_3_1 + x3_1_1  = 1
 CI1e2j1: x0_2_1 + x2_0_1 + x1_2_1 + x2_1_1 + x2_3_1 + x3_2_1  = 1
 CI1e3j1: x0_3_1 + x3_0_1 + x1_3_1 + x3_1_1 + x2_3_1 + x3_2_1  = 1
 CI1e0j2: x0_1_2 + x1_0_2 + x0_2_2 + x2_0_2 + x0_3_2 + x3_0_2  = 1
 CI1e1j2: x0_1_2 + x1_0_2 + x1_2_2 + x2_1_2 + x1_3_2 + x3_1_2  = 1
 CI1e2j2: x0_2_2 + x2_0_2 + x1_2_2 + x2_1_2 + x2_3_2 + x3_2_2  = 1
 CI1e3j2: x0_3_2 + x3_0_2 + x1_3_2 + x3_1_2 + x2_3_2 + x3_2_2  = 1
 CI1e0j3: x0_1_3 + x1_0_3 + x0_2_3 + x2_0_3 + x0_3_3 + x3_0_3  = 1
 CI1e1j3: x0_1_3 + x1_0_3 + x1_2_3 + x2_1_3 + x1_3_3 + x3_1_3  = 1
 CI1e2j3: x0_2_3 + x2_0_3 + x1_2_3 + x2_1_3 + x2_3_3 + x3_2_3  = 1
 CI1e3j3: x0_3_3 + x3_0_3 + x1_3_3 + x3_1_3 + x2_3_3 + x3_2_3  = 1
 CI1e0j4: x0_1_4 + x1_0_4 + x0_2_4 + x2_0_4 + x0_3_4 + x3_0_4  = 1
 CI1e1j4: x0_1_4 + x1_0_4 + x1_2_4 + x2_1_4 + x1_3_4 + x3_1_4  = 1
 CI1e2j4: x0_2_4 + x2_0_4 + x1_2_4 + x2_1_4 + x2_3_4 + x3_2_4  = 1
 CI1e3j4: x0_3_4 + x3_0_4 + x1_3_4 + x3_1_4 + x2_3_4 + x3_2_4  = 1
 CI1e0j5: x0_1_5 + x1_0_5 + x0_2_5 + x2_0_5 + x0_3_5 + x3_0_5  = 1
 CI1e1j5: x0_1_5 + x1_0_5 + x1_2_5 + x2_1_5 + x1_3_5 + x3_1_5  = 1
 CI1e2j5: x0_2_5 + x2_0_5 + x1_2_5 + x2_1_5 + x2_3_5 + x3_2_5  = 1
 CI1e3j5: x0_3_5 + x3_0_5 + x1_3_5 + x3_1_5 + x2_3_5 + x3_2_5  = 1
 CI2d0e0: x0_0_0 + x0_0_1 + x0_0_2 + x0_0_3 + x0_0_4 + x0_0_5  = 0
 CI2d0e1: x0_1_0 + x0_1_1 + x0_1_2 + x0_1_3 + x0_1_4 + x0_1_5  = 1
 CI2d0e2: x0_2_0 + x0_2_1 + x0_2_2 + x0_2_3 + x0_2_4 + x0_2_5  = 1
 CI2d0e3: x0_3_0 + x0_3_1 + x0_3_2 + x0_3_3 + x0_3_4 + x0_3_5  = 1
 CI2d1e0: x1_0_0 + x1_0_1 + x1_0_2 + x1_0_3 + x1_0_4 + x1_0_5  = 1
 CI2d1e1: x1_1_0 + x1_1_1 + x1_1_2 + x1_1_3 + x1_1_4 + x1_1_5  = 0
 CI2d1e2: x1_2_0 + x1_2_1 + x1_2_2 + x1_2_3 + x1_2_4 + x1_2_5  = 1
 CI2d1e3: x1_3_0 + x1_3_1 + x1_3_2 + x1_3_3 + x1_3_4 + x1_3_5  = 1
 CI2d2e0: x2_0_0 + x2_0_1 + x2_0_2 + x2_0_3 + x2_0_4 + x2_0_5  = 1
 CI2d2e1: x2_1_0 + x2_1_1 + x2_1_2 + x2_1_3 + x2_1_4 + x2_1_5  = 1
 CI2d2e2: x2_2_0 + x2_2_1 + x2_2_2 + x2_2_3 + x2_2_4 + x2_2_5  = 0
 CI2d2e3: x2_3_0 + x2_3_1 + x2_3_2 + x2_3_3 + x2_3_4 + x2_3_5  = 1
 CI2d3e0: x3_0_0 + x3_0_1 + x3_0_2 + x3_0_3 + x3_0_4 + x3_0_5  = 1
 CI2d3e1: x3_1_0 + x3_1_1 + x3_1_2 + x3_1_3 + x3_1_4 + x3_1_5  = 1
 CI2d3e2: x3_2_0 + x3_2_1 + x3_2_2 + x3_2_3 + x3_2_4 + x3_2_5  = 1
 CI2d3e3: x3_3_0 + x3_3_1 + x3_3_2 + x3_3_3 + x3_3_4 + x3_3_5  = 0
 CI3d0e1: x0_1_0 + x1_0_0 + x0_1_1 + x1_0_1 + x0_1_2 + x1_0_2  = 1
 CI3d0e2: x0_2_0 + x2_0_0 + x0_2_1 + x2_0_1 + x0_2_2 + x2_0_2  = 1
 CI3d0e3: x0_3_0 + x3_0_0 + x0_3_1 + x3_0_1 + x0_3_2 + x3_0_2  = 1
 CI3d1e0: x0_1_0 + x1_0_0 + x0_1_1 + x1_0_1 + x0_1_2 + x1_0_2  = 1
 CI3d1e2: x1_2_0 + x2_1_0 + x1_2_1 + x2_1_1 + x1_2_2 + x2_1_2  = 1
 CI3d1e3: x1_3_0 + x3_1_0 + x1_3_1 + x3_1_1 + x1_3_2 + x3_1_2  = 1
 CI3d2e0: x0_2_0 + x2_0_0 + x0_2_1 + x2_0_1 + x0_2_2 + x2_0_2  = 1
 CI3d2e1: x1_2_0 + x2_1_0 + x1_2_1 + x2_1_1 + x1_2_2 + x2_1_2  = 1
 CI3d2e3: x2_3_0 + x3_2_0 + x2_3_1 + x3_2_1 + x2_3_2 + x3_2_2  = 1
 CI3d3e0: x0_3_0 + x3_0_0 + x0_3_1 + x3_0_1 + x0_3_2 + x3_0_2  = 1
 CI3d3e1: x1_3_0 + x3_1_0 + x1_3_1 + x3_1_1 + x1_3_2 + x3_1_2  = 1
 CI3d3e2: x2_3_0 + x3_2_0 + x2_3_1 + x3_2_1 + x2_3_2 + x3_2_2  = 1
 CDP1_52: x0_1_0 + x0_2_0 + x0_3_0 + x0_1_1 + x0_2_1 + x0_3_1 + x0_1_2 + x0_2_2
          + x0_3_2 <= 0
 c54:     - x0_1_0 - x0_2_0 - x0_3_0 - x0_1_1 - x0_2_1 - x0_3_1 - x0_1_2
          - x0_2_2 - x0_3_2 - x0_1_3 - x0_2_3 - x0_3_3 + x100  = -1
 CSM_53:  coutC1 - x99  = 0
 c56:     - x1_0_0 - x1_2_0 - x1_3_0 - x1_0_1 - x1_2_1 - x1_3_1 - x1_0_2
          - x1_2_2 - x1_3_2 - x1_0_3 - x1_2_3 - x1_3_3 + x102  = -1
 CSM_55:  coutC2 - x101  = 0
 c58:     x99 >= 0
 c59:     - x99 + x100 <= 0
 c60:     x103 + x104 >= 1
 c61:     x101 >= 0
 c62:     - x101 + x102 <= 0
 c63:     x105 + x106 >= 1
 i1: x103 = 1 <-> x100 - x99 => 0
 i2: x104 = 1 <-> x99 =< 0
 i3: x105 = 1 <-> x102 - x101 => 0
 i4: x106 = 1 <-> x101 =< 0
Bounds
 0 <= x0_1_0 <= 1
 0 <= x1_0_0 <= 1
 0 <= x0_2_0 <= 1
 0 <= x2_0_0 <= 1
 0 <= x0_3_0 <= 1
 0 <= x3_0_0 <= 1
 0 <= x1_2_0 <= 1
 0 <= x2_1_0 <= 1
 0 <= x1_3_0 <= 1
 0 <= x3_1_0 <= 1
 0 <= x2_3_0 <= 1
 0 <= x3_2_0 <= 1
 0 <= x0_1_1 <= 1
 0 <= x1_0_1 <= 1
 0 <= x0_2_1 <= 1
 0 <= x2_0_1 <= 1
 0 <= x0_3_1 <= 1
 0 <= x3_0_1 <= 1
 0 <= x1_2_1 <= 1
 0 <= x2_1_1 <= 1
 0 <= x1_3_1 <= 1
 0 <= x3_1_1 <= 1
 0 <= x2_3_1 <= 1
 0 <= x3_2_1 <= 1
 0 <= x0_1_2 <= 1
 0 <= x1_0_2 <= 1
 0 <= x0_2_2 <= 1
 0 <= x2_0_2 <= 1
 0 <= x0_3_2 <= 1
 0 <= x3_0_2 <= 1
 0 <= x1_2_2 <= 1
 0 <= x2_1_2 <= 1
 0 <= x1_3_2 <= 1
 0 <= x3_1_2 <= 1
 0 <= x2_3_2 <= 1
 0 <= x3_2_2 <= 1
 0 <= x0_1_3 <= 1
 0 <= x1_0_3 <= 1
 0 <= x0_2_3 <= 1
 0 <= x2_0_3 <= 1
 0 <= x0_3_3 <= 1
 0 <= x3_0_3 <= 1
 0 <= x1_2_3 <= 1
 0 <= x2_1_3 <= 1
 0 <= x1_3_3 <= 1
 0 <= x3_1_3 <= 1
 0 <= x2_3_3 <= 1
 0 <= x3_2_3 <= 1
 0 <= x0_1_4 <= 1
 0 <= x1_0_4 <= 1
 0 <= x0_2_4 <= 1
 0 <= x2_0_4 <= 1
 0 <= x0_3_4 <= 1
 0 <= x3_0_4 <= 1
 0 <= x1_2_4 <= 1
 0 <= x2_1_4 <= 1
 0 <= x1_3_4 <= 1
 0 <= x3_1_4 <= 1
 0 <= x2_3_4 <= 1
 0 <= x3_2_4 <= 1
 0 <= x0_1_5 <= 1
 0 <= x1_0_5 <= 1
 0 <= x0_2_5 <= 1
 0 <= x2_0_5 <= 1
 0 <= x0_3_5 <= 1
 0 <= x3_0_5 <= 1
 0 <= x1_2_5 <= 1
 0 <= x2_1_5 <= 1
 0 <= x1_3_5 <= 1
 0 <= x3_1_5 <= 1
 0 <= x2_3_5 <= 1
 0 <= x3_2_5 <= 1
 0 <= x0_0_0 <= 1
 0 <= x0_0_1 <= 1
 0 <= x0_0_2 <= 1
 0 <= x0_0_3 <= 1
 0 <= x0_0_4 <= 1
 0 <= x0_0_5 <= 1
 0 <= x1_1_0 <= 1
 0 <= x1_1_1 <= 1
 0 <= x1_1_2 <= 1
 0 <= x1_1_3 <= 1
 0 <= x1_1_4 <= 1
 0 <= x1_1_5 <= 1
 0 <= x2_2_0 <= 1
 0 <= x2_2_1 <= 1
 0 <= x2_2_2 <= 1
 0 <= x2_2_3 <= 1
 0 <= x2_2_4 <= 1
 0 <= x2_2_5 <= 1
 0 <= x3_3_0 <= 1
 0 <= x3_3_1 <= 1
 0 <= x3_3_2 <= 1
 0 <= x3_3_3 <= 1
 0 <= x3_3_4 <= 1
 0 <= x3_3_5 <= 1
      coutC2 >= 0
      coutC1 >= 0
      x99 Free
      x100 Free
      x101 Free
      x102 Free
 0 <= x103 <= 1
 0 <= x104 <= 1
 0 <= x105 <= 1
 0 <= x106 <= 1
Binaries
 x103  x104  x105  x106 
Generals
 x0_1_0  x1_0_0  x0_2_0  x2_0_0  x0_3_0  x3_0_0  x1_2_0  x2_1_0  x1_3_0 
 x3_1_0  x2_3_0  x3_2_0  x0_1_1  x1_0_1  x0_2_1  x2_0_1  x0_3_1  x3_0_1 
 x1_2_1  x2_1_1  x1_3_1  x3_1_1  x2_3_1  x3_2_1  x0_1_2  x1_0_2  x0_2_2 
 x2_0_2  x0_3_2  x3_0_2  x1_2_2  x2_1_2  x1_3_2  x3_1_2  x2_3_2  x3_2_2 
 x0_1_3  x1_0_3  x0_2_3  x2_0_3  x0_3_3  x3_0_3  x1_2_3  x2_1_3  x1_3_3 
 x3_1_3  x2_3_3  x3_2_3  x0_1_4  x1_0_4  x0_2_4  x2_0_4  x0_3_4  x3_0_4 
 x1_2_4  x2_1_4  x1_3_4  x3_1_4  x2_3_4  x3_2_4  x0_1_5  x1_0_5  x0_2_5 
 x2_0_5  x0_3_5  x3_0_5  x1_2_5  x2_1_5  x1_3_5  x3_1_5  x2_3_5  x3_2_5 
 x0_0_0  x0_0_1  x0_0_2  x0_0_3  x0_0_4  x0_0_5  x1_1_0  x1_1_1  x1_1_2 
 x1_1_3  x1_1_4  x1_1_5  x2_2_0  x2_2_1  x2_2_2  x2_2_3  x2_2_4  x2_2_5 
 x3_3_0  x3_3_1  x3_3_2  x3_3_3  x3_3_4  x3_3_5  coutC2  coutC1 
End
